92 52 61 43 37 91 
47 73 46 45 74 
44 38 35 72 93 96 
41 71 85 33 32 
64 98 7 3 1 68 
59 90 87 9 80 
29 31 76 48 24 
95 62 63 51 56 
83 65 84 30 34 66 
88 6 8 2 40 54 70 
39 36 67 26 27 
75 77 86 11 10 13 
23 21 19 22 49 57 58 
69 82 16 14 12 53 79 60 100 
42 4 97 55 
99 81 78 15 17 
5 94 25 
28 50 20 
18 89 

